0 1855
1 1855
2 1794
3 1707
4 1586
5 1586
6 1586
7 1570
8 1556
9 1540
10 1441
11 1405
12 1405
13 1405
14 1405
15 1392
16 1392
17 1392
18 1388
19 1344
20 1344
21 1306
22 1306
23 1306
24 1306
25 1306
26 1306
27 1280
28 1280
29 1278
30 1267
31 1224
32 1224
33 1224
34 1224
35 1194
36 1194
37 1194
38 1192
39 1192
40 1184
41 1184
42 1181
43 1181
44 1181
45 1178
46 1153
47 1153
48 1153
49 1153
50 1153
51 1153
52 1153
53 1133
54 1127
55 1112
56 1104
57 1104
58 1104
59 1104
60 1104
61 1104
62 1104
63 1083
64 1083
65 1080
66 1080
67 1080
68 1080
69 1071
70 1046
71 1046
72 1046
73 1046
74 1046
75 1046
76 1046
77 1042
78 1042
79 1042
80 1042
81 1042
82 1025
83 1025
84 1025
85 1013
86 1013
87 1013
88 1003
89 997
90 997
91 997
92 997
93 985
94 985
95 985
96 985
97 975
98 975
99 975
100 971
101 968
102 961
103 956
104 953
105 947
106 945
107 944
108 932
109 919
110 905
111 905
112 905
113 905
114 905
115 904
116 904
117 904
118 904
119 900
120 900
121 899
122 899
123 898
124 898
125 898
126 896
127 895
128 895
129 895
130 895
131 895
132 895
133 895
134 893
135 893
136 893
137 893
138 887
139 887
140 887
141 887
142 887
143 887
144 887
145 885
146 885
147 885
148 885
149 885
150 885
151 885
152 885
153 885
154 885
155 885
156 885
157 884
158 884
159 884
160 884
161 884
162 884
163 884
164 884
165 880
166 880
167 880
168 880
169 880
170 880
171 880
172 880
173 880
174 864
175 864
176 864
177 864
178 864
179 864
180 864
181 864
182 864
183 864
184 864
185 861
186 861
187 861
188 861
189 861
190 861
191 861
192 861
193 861
194 861
195 861
196 861
197 861
198 861
199 861
200 861
201 861
202 861
203 861
204 861
205 861
206 861
207 861
208 861
209 861
210 861
211 861
212 861
213 861
214 861
215 861
216 861
217 861
218 861
219 861
220 861
221 861
222 861
223 861
224 861
225 861
226 861
227 861
228 861
229 861
230 861
231 861
232 861
233 861
234 861
235 861
236 861
237 861
238 861
239 861
240 861
241 861
242 861
243 861
244 861
245 861
246 861
247 861
248 861
249 861
250 861
251 861
252 861
253 861
254 861
255 861
256 861
257 861
258 861
259 861
260 861
261 861
262 861
263 861
264 861
265 861
266 861
267 861
268 861
269 861
270 861
271 861
272 861
273 861
274 861
275 861
276 861
277 861
278 861
279 861
280 861
281 861
282 861
283 861
284 861
285 861
286 861
287 861
288 861
289 861
290 861
291 861
292 861
293 861
294 861
295 861
296 861
297 861
298 861
299 861
300 861
301 861
302 861
303 861
304 861
305 861
306 861
307 861
308 861
309 861
310 861
311 861
312 861
313 861
314 861
315 861
316 861
317 861
318 861
319 861
320 861
321 861
322 861
323 861
324 861
325 861
326 861
327 861
328 861
329 861
330 861
331 861
332 861
333 861
334 861
335 861
336 861
337 861
338 861
339 861
340 861
341 861
342 861
343 861
344 861
345 861
346 861
347 861
348 861
349 861
350 861
351 861
352 861
353 861
354 861
355 861
356 861
357 861
358 861
359 861
360 861
361 861
362 861
363 861
364 861
365 861
366 861
367 861
368 861
369 861
370 861
371 861
372 861
373 861
374 861
375 861
376 861
377 861
378 861
379 861
380 861
381 861
382 861
383 861
384 861
385 861
386 861
387 861
388 861
389 861
390 861
391 861
392 861
393 861
394 861
395 861
396 861
397 861
398 861
399 861
400 861
401 861
402 861
403 861
404 861
405 861
406 861
407 861
408 861
409 861
410 861
411 861
412 861
413 861
414 861
415 861
416 861
417 861
418 861
419 861
420 861
421 861
422 861
423 861
424 861
425 861
426 861
427 858
428 858
429 858
430 858
431 858
432 858
433 858
434 845
435 845
436 845
437 845
438 845
439 845
440 845
441 845
442 845
443 845
444 845
445 845
446 845
447 845
448 845
449 845
450 845
451 845
452 845
453 845
454 845
455 845
456 845
457 845
458 845
459 845
460 845
461 845
462 845
463 845
464 845
465 845
466 845
467 845
468 845
469 845
470 845
471 845
472 845
473 845
474 845
475 845
476 845
477 845
478 845
479 845
480 845
481 845
482 845
483 845
484 845
485 845
486 845
487 845
488 845
489 845
490 845
491 845
492 845
493 845
494 845
495 845
496 845
497 845
498 845
499 845
500 845
501 845
502 845
503 845
504 845
505 845
506 845
507 845
508 845
509 845
510 845
511 845
512 845
513 845
514 845
515 845
516 845
517 845
518 845
519 845
520 845
521 845
522 845
523 845
524 845
525 845
526 845
527 845
528 845
529 845
530 845
531 845
532 845
533 845
534 845
535 845
536 845
537 845
538 845
539 845
540 845
541 845
542 845
543 845
544 845
545 845
546 845
547 845
548 845
549 845
550 845
551 845
552 845
553 845
554 845
555 845
556 845
557 845
558 845
559 845
560 845
561 845
562 845
563 845
564 845
565 845
566 845
567 845
568 845
569 845
570 845
571 845
572 845
573 845
574 845
575 845
576 845
577 845
578 845
579 845
580 845
581 845
582 845
583 845
584 845
585 845
586 845
587 845
588 845
589 845
590 845
591 845
592 845
593 845
594 845
595 845
596 845
597 845
598 845
599 845
600 845
601 845
602 845
603 845
604 845
605 845
606 845
607 845
608 845
609 845
610 845
611 845
612 845
613 845
614 845
615 845
616 845
617 845
618 845
619 845
620 845
621 845
622 845
623 845
624 845
625 845
626 845
627 845
628 845
629 845
630 845
631 845
632 845
633 845
634 845
635 845
636 845
637 845
638 845
639 845
640 845
641 845
642 845
643 845
644 845
645 845
646 845
647 845
648 845
649 845
650 845
651 845
652 845
653 845
654 845
655 845
656 845
657 845
658 845
659 845
660 845
661 845
662 845
663 845
664 845
665 845
666 845
667 845
668 845
669 845
670 845
671 845
672 845
673 845
674 845
675 845
676 845
677 845
678 845
679 845
680 845
681 845
682 845
683 845
684 845
685 845
686 845
687 845
688 845
689 845
690 845
691 845
692 845
693 845
694 845
695 845
696 845
697 845
698 845
699 845
700 845
701 845
702 845
703 845
704 845
705 845
706 845
707 845
708 845
709 845
710 845
711 845
712 845
713 845
714 845
715 845
716 845
717 845
718 845
719 845
720 845
721 845
722 845
723 845
724 845
725 845
726 845
727 845
728 845
729 845
730 845
731 845
732 845
733 845
734 845
735 845
736 845
737 845
738 845
739 845
740 845
741 845
742 845
743 845
744 845
745 845
746 845
747 845
748 845
749 845
750 845
751 845
752 845
753 845
754 845
755 845
756 845
757 845
758 845
759 845
760 845
761 845
762 845
763 845
764 845
765 845
766 845
767 845
768 845
769 845
770 845
771 845
772 845
773 845
774 845
775 845
776 845
777 845
778 845
779 845
780 845
781 845
782 845
783 845
784 845
785 845
786 845
787 845
788 845
789 845
790 845
791 845
792 845
793 845
794 845
795 845
796 845
797 845
798 845
799 845
800 845
801 845
802 845
803 845
804 845
805 845
806 845
807 845
808 845
809 845
810 845
811 845
812 845
813 845
814 845
815 845
816 845
817 845
818 845
819 845
820 845
821 845
822 845
823 845
824 845
825 845
826 845
827 845
828 845
829 845
830 845
831 845
832 845
833 845
834 845
835 845
836 845
837 845
838 845
839 845
840 845
841 845
842 845
843 845
844 845
845 845
846 845
847 845
848 845
849 845
850 845
851 845
852 845
853 845
854 845
855 845
856 845
857 845
858 845
859 845
860 845
861 845
862 845
863 845
864 845
865 845
866 845
867 845
868 845
869 845
870 845
871 845
872 845
873 845
874 845
875 845
876 845
877 845
878 845
879 845
880 845
881 845
882 845
883 845
884 845
885 845
886 845
887 845
888 845
889 845
890 845
891 845
892 845
893 845
894 845
895 845
896 845
897 845
898 845
899 845
900 845
901 845
902 845
903 845
904 845
905 845
906 845
907 845
908 845
909 845
910 845
911 845
912 845
913 845
914 845
915 845
916 845
917 845
918 845
919 845
920 845
921 845
922 845
923 845
924 845
925 845
926 845
927 845
928 845
929 845
930 845
931 845
932 845
933 845
934 845
935 845
936 845
937 845
938 845
939 845
940 845
941 845
942 845
943 845
944 845
945 845
946 845
947 845
948 845
949 845
950 845
951 845
952 845
953 845
954 845
955 845
956 845
957 845
958 845
959 845
960 845
961 845
962 845
963 845
964 845
965 845
966 845
967 845
968 845
969 845
970 845
971 845
972 845
973 845
974 845
975 845
976 845
977 845
978 845
979 845
980 845
981 845
982 845
983 845
984 845
985 845
986 845
987 845
988 845
989 845
990 845
991 845
992 845
993 845
994 845
995 845
996 845
997 845
998 845
999 845
Best: [[25],
       [7,4,24,29,5,12,9,10,19,15],
       [21,6,26,11,16,23,30,28],
       [3,18,20,32,22,14],
       [31,27,17,8,2,13]], fitness: 845
